p cnf 14 71
c ind 1 2 3 4 5 6 7 8 0
-3 -1 0
-1 -3 0
-7 -5 0
-5 -7 0
-4 -2 0
-2 -4 0
-8 -6 0
-6 -8 0
-5 -1 0
-1 -5 0
-7 -3 0
-3 -7 0
-6 -2 0
-2 -6 0
-8 -4 0
-4 -8 0
-9 1 0
-9 4 0
-10 5 0
-10 8 0
-9 1 0
-9 6 0
-10 3 0
-10 8 0
-11 -1 1 0
-11 -3 2 0
-12 -5 1 0
-12 -7 2 0
-11 -2 3 0
-11 -4 4 0
-12 -6 3 0
-12 -8 4 0
-13 -1 5 0
-13 -3 6 0
-14 -5 5 0
-14 -7 6 0
-13 -2 7 0
-13 -4 8 0
-14 -6 7 0
-14 -8 8 0
-1 -11 1 0
-5 -11 2 0
-3 -12 1 0
-7 -12 2 0
-1 -13 3 0
-5 -13 4 0
-3 -14 3 0
-7 -14 4 0
-2 -11 5 0
-6 -11 6 0
-4 -12 5 0
-8 -12 6 0
-2 -13 7 0
-6 -13 8 0
-4 -14 7 0
-8 -14 8 0
1 2 0
-1 -2 0
3 4 0
-3 -4 0
5 6 0
-5 -6 0
7 8 0
-7 -8 0
11 13 0
-11 -13 0
12 14 0
-12 -14 0
9 10 0
-9 -10 0
9 0
